# Solution for model OBJROW
# Objective value = 843
C 843
x(j0,m2) 0
x(j0,m3) 44
x(j0,m5) 104
x(j0,m4) 162
x(j0,m0) 259
x(j0,m7) 336
x(j0,m8) 462
x(j0,m9) 559
x(j0,m1) 655
x(j0,m6) 733
x(j1,m4) 0
x(j1,m7) 15
x(j1,m1) 91
x(j1,m8) 198
x(j1,m0) 320
x(j1,m3) 478
x(j1,m2) 563
x(j1,m5) 672
x(j1,m9) 711
x(j1,m6) 822
x(j2,m6) 305
x(j2,m9) 223
x(j2,m4) 327
x(j2,m3) 374
x(j2,m1) 450
x(j2,m0) 499
x(j2,m8) 539
x(j2,m2) 644
x(j2,m7) 692
x(j2,m5) 772
x(j3,m1) 0
x(j3,m2) 92
x(j3,m7) 116
x(j3,m5) 255
x(j3,m8) 332
x(j3,m4) 433
x(j3,m3) 444
x(j3,m6) 451
x(j3,m9) 523
x(j3,m0) 566
x(j4,m1) 184
x(j4,m6) 88
x(j4,m3) 299
x(j4,m0) 397
x(j4,m2) 461
x(j4,m8) 573
x(j4,m4) 612
x(j4,m7) 624
x(j4,m9) 691
x(j4,m5) 711
x(j5,m5) 162
x(j5,m7) 46
x(j5,m8) 255
x(j5,m2) 332
x(j5,m4) 460
x(j5,m6) 523
x(j5,m3) 616
x(j5,m1) 727
x(j5,m9) 784
x(j5,m0) 791
x(j6,m1) 274
x(j6,m6) 0
x(j6,m4) 337
x(j6,m5) 363
x(j6,m2) 369
x(j6,m3) 451
x(j6,m7) 478
x(j6,m8) 607
x(j6,m9) 655
x(j6,m0) 696
x(j7,m0) 0
x(j7,m5) 89
x(j7,m8) 104
x(j7,m9) 145
x(j7,m3) 223
x(j7,m6) 327
x(j7,m4) 518
x(j7,m7) 548
x(j7,m2) 774
x(j7,m1) 810
x(j8,m2) 109
x(j8,m5) 1
x(j8,m3) 210
x(j8,m6) 223
x(j8,m4) 366
x(j8,m7) 420
x(j8,m8) 433
x(j8,m9) 462
x(j8,m1) 543
x(j8,m0) 621
x(j9,m4) 88
x(j9,m9) 0
x(j9,m6) 159
x(j9,m7) 236
x(j9,m0) 268
x(j9,m2) 363
x(j9,m8) 379
x(j9,m5) 433
x(j9,m3) 684
x(j9,m1) 784
y(j0,k1,m0) 1
y(j0,k1,m1) 0
y(j0,k1,m2) 1
y(j0,k1,m3) 1
y(j0,k1,m4) 0
y(j0,k1,m5) 1
y(j0,k1,m6) 1
y(j0,k1,m7) 0
y(j0,k1,m8) 0
y(j0,k1,m9) 1
y(j0,k2,m0) 1
y(j0,k2,m1) 0
y(j0,k2,m2) 1
y(j0,k2,m3) 1
y(j0,k2,m4) 1
y(j0,k2,m5) 1
y(j0,k2,m6) 0
y(j0,k2,m7) 1
y(j0,k2,m8) 1
y(j0,k2,m9) 0
y(j0,k3,m0) 1
y(j0,k3,m1) 0
y(j0,k3,m2) 1
y(j0,k3,m3) 1
y(j0,k3,m4) 1
y(j0,k3,m5) 1
y(j0,k3,m6) 0
y(j0,k3,m7) 0
y(j0,k3,m8) 0
y(j0,k3,m9) 0
y(j0,k4,m0) 1
y(j0,k4,m1) 0
y(j0,k4,m2) 1
y(j0,k4,m3) 1
y(j0,k4,m4) 1
y(j0,k4,m5) 1
y(j0,k4,m6) 0
y(j0,k4,m7) 1
y(j0,k4,m8) 1
y(j0,k4,m9) 1
y(j0,k5,m0) 1
y(j0,k5,m1) 1
y(j0,k5,m2) 1
y(j0,k5,m3) 1
y(j0,k5,m4) 1
y(j0,k5,m5) 1
y(j0,k5,m6) 0
y(j0,k5,m7) 0
y(j0,k5,m8) 0
y(j0,k5,m9) 1
y(j0,k6,m0) 1
y(j0,k6,m1) 0
y(j0,k6,m2) 1
y(j0,k6,m3) 1
y(j0,k6,m4) 1
y(j0,k6,m5) 1
y(j0,k6,m6) 0
y(j0,k6,m7) 1
y(j0,k6,m8) 1
y(j0,k6,m9) 1
y(j0,k7,m0) 0
y(j0,k7,m1) 1
y(j0,k7,m2) 1
y(j0,k7,m3) 1
y(j0,k7,m4) 1
y(j0,k7,m5) 0
y(j0,k7,m6) 0
y(j0,k7,m7) 1
y(j0,k7,m8) 0
y(j0,k7,m9) 0
y(j0,k8,m0) 1
y(j0,k8,m1) 0
y(j0,k8,m2) 1
y(j0,k8,m3) 1
y(j0,k8,m4) 1
y(j0,k8,m5) 0
y(j0,k8,m6) 0
y(j0,k8,m7) 1
y(j0,k8,m8) 0
y(j0,k8,m9) 0
y(j0,k9,m0) 1
y(j0,k9,m1) 1
y(j0,k9,m2) 1
y(j0,k9,m3) 1
y(j0,k9,m4) 0
y(j0,k9,m5) 1
y(j0,k9,m6) 0
y(j0,k9,m7) 0
y(j0,k9,m8) 0
y(j0,k9,m9) 0
y(j1,k0,m0) 0
y(j1,k0,m1) 1
y(j1,k0,m2) 0
y(j1,k0,m3) 0
y(j1,k0,m4) 1
y(j1,k0,m5) 0
y(j1,k0,m6) 0
y(j1,k0,m7) 1
y(j1,k0,m8) 1
y(j1,k0,m9) 0
y(j1,k2,m0) 1
y(j1,k2,m1) 1
y(j1,k2,m2) 1
y(j1,k2,m3) 0
y(j1,k2,m4) 1
y(j1,k2,m5) 1
y(j1,k2,m6) 0
y(j1,k2,m7) 1
y(j1,k2,m8) 1
y(j1,k2,m9) 0
y(j1,k3,m0) 1
y(j1,k3,m1) 0
y(j1,k3,m2) 0
y(j1,k3,m3) 0
y(j1,k3,m4) 1
y(j1,k3,m5) 0
y(j1,k3,m6) 0
y(j1,k3,m7) 1
y(j1,k3,m8) 1
y(j1,k3,m9) 0
y(j1,k4,m0) 1
y(j1,k4,m1) 1
y(j1,k4,m2) 0
y(j1,k4,m3) 0
y(j1,k4,m4) 1
y(j1,k4,m5) 1
y(j1,k4,m6) 0
y(j1,k4,m7) 1
y(j1,k4,m8) 1
y(j1,k4,m9) 0
y(j1,k5,m0) 1
y(j1,k5,m1) 1
y(j1,k5,m2) 0
y(j1,k5,m3) 1
y(j1,k5,m4) 1
y(j1,k5,m5) 0
y(j1,k5,m6) 0
y(j1,k5,m7) 1
y(j1,k5,m8) 1
y(j1,k5,m9) 1
y(j1,k6,m0) 1
y(j1,k6,m1) 1
y(j1,k6,m2) 0
y(j1,k6,m3) 0
y(j1,k6,m4) 1
y(j1,k6,m5) 0
y(j1,k6,m6) 0
y(j1,k6,m7) 1
y(j1,k6,m8) 1
y(j1,k6,m9) 0
y(j1,k7,m0) 0
y(j1,k7,m1) 1
y(j1,k7,m2) 1
y(j1,k7,m3) 0
y(j1,k7,m4) 1
y(j1,k7,m5) 0
y(j1,k7,m6) 0
y(j1,k7,m7) 1
y(j1,k7,m8) 0
y(j1,k7,m9) 0
y(j1,k8,m0) 1
y(j1,k8,m1) 1
y(j1,k8,m2) 0
y(j1,k8,m3) 0
y(j1,k8,m4) 1
y(j1,k8,m5) 0
y(j1,k8,m6) 0
y(j1,k8,m7) 1
y(j1,k8,m8) 1
y(j1,k8,m9) 0
y(j1,k9,m0) 0
y(j1,k9,m1) 1
y(j1,k9,m2) 0
y(j1,k9,m3) 1
y(j1,k9,m4) 1
y(j1,k9,m5) 0
y(j1,k9,m6) 0
y(j1,k9,m7) 1
y(j1,k9,m8) 1
y(j1,k9,m9) 0
y(j2,k0,m0) 0
y(j2,k0,m1) 1
y(j2,k0,m2) 0
y(j2,k0,m3) 0
y(j2,k0,m4) 0
y(j2,k0,m5) 0
y(j2,k0,m6) 1
y(j2,k0,m7) 0
y(j2,k0,m8) 0
y(j2,k0,m9) 1
y(j2,k1,m0) 0
y(j2,k1,m1) 0
y(j2,k1,m2) 0
y(j2,k1,m3) 1
y(j2,k1,m4) 0
y(j2,k1,m5) 0
y(j2,k1,m6) 1
y(j2,k1,m7) 0
y(j2,k1,m8) 0
y(j2,k1,m9) 1
y(j2,k3,m0) 1
y(j2,k3,m1) 0
y(j2,k3,m2) 0
y(j2,k3,m3) 1
y(j2,k3,m4) 1
y(j2,k3,m5) 0
y(j2,k3,m6) 1
y(j2,k3,m7) 0
y(j2,k3,m8) 0
y(j2,k3,m9) 1
y(j2,k4,m0) 0
y(j2,k4,m1) 0
y(j2,k4,m2) 0
y(j2,k4,m3) 0
y(j2,k4,m4) 1
y(j2,k4,m5) 0
y(j2,k4,m6) 0
y(j2,k4,m7) 0
y(j2,k4,m8) 1
y(j2,k4,m9) 1
y(j2,k5,m0) 1
y(j2,k5,m1) 1
y(j2,k5,m2) 0
y(j2,k5,m3) 1
y(j2,k5,m4) 1
y(j2,k5,m5) 0
y(j2,k5,m6) 1
y(j2,k5,m7) 0
y(j2,k5,m8) 0
y(j2,k5,m9) 1
y(j2,k6,m0) 1
y(j2,k6,m1) 0
y(j2,k6,m2) 0
y(j2,k6,m3) 1
y(j2,k6,m4) 1
y(j2,k6,m5) 0
y(j2,k6,m6) 0
y(j2,k6,m7) 0
y(j2,k6,m8) 1
y(j2,k6,m9) 1
y(j2,k7,m0) 0
y(j2,k7,m1) 1
y(j2,k7,m2) 1
y(j2,k7,m3) 0
y(j2,k7,m4) 1
y(j2,k7,m5) 0
y(j2,k7,m6) 1
y(j2,k7,m7) 0
y(j2,k7,m8) 0
y(j2,k7,m9) 0
y(j2,k8,m0) 1
y(j2,k8,m1) 1
y(j2,k8,m2) 0
y(j2,k8,m3) 0
y(j2,k8,m4) 1
y(j2,k8,m5) 0
y(j2,k8,m6) 0
y(j2,k8,m7) 0
y(j2,k8,m8) 0
y(j2,k8,m9) 1
y(j2,k9,m0) 0
y(j2,k9,m1) 1
y(j2,k9,m2) 0
y(j2,k9,m3) 1
y(j2,k9,m4) 0
y(j2,k9,m5) 0
y(j2,k9,m6) 0
y(j2,k9,m7) 0
y(j2,k9,m8) 0
y(j2,k9,m9) 0
y(j3,k0,m0) 0
y(j3,k0,m1) 1
y(j3,k0,m2) 0
y(j3,k0,m3) 0
y(j3,k0,m4) 0
y(j3,k0,m5) 0
y(j3,k0,m6) 1
y(j3,k0,m7) 1
y(j3,k0,m8) 1
y(j3,k0,m9) 1
y(j3,k1,m0) 0
y(j3,k1,m1) 1
y(j3,k1,m2) 1
y(j3,k1,m3) 1
y(j3,k1,m4) 0
y(j3,k1,m5) 1
y(j3,k1,m6) 1
y(j3,k1,m7) 0
y(j3,k1,m8) 0
y(j3,k1,m9) 1
y(j3,k2,m0) 0
y(j3,k2,m1) 1
y(j3,k2,m2) 1
y(j3,k2,m3) 0
y(j3,k2,m4) 0
y(j3,k2,m5) 1
y(j3,k2,m6) 0
y(j3,k2,m7) 1
y(j3,k2,m8) 1
y(j3,k2,m9) 0
y(j3,k4,m0) 0
y(j3,k4,m1) 1
y(j3,k4,m2) 1
y(j3,k4,m3) 0
y(j3,k4,m4) 1
y(j3,k4,m5) 1
y(j3,k4,m6) 0
y(j3,k4,m7) 1
y(j3,k4,m8) 1
y(j3,k4,m9) 1
y(j3,k5,m0) 1
y(j3,k5,m1) 1
y(j3,k5,m2) 1
y(j3,k5,m3) 1
y(j3,k5,m4) 1
y(j3,k5,m5) 0
y(j3,k5,m6) 1
y(j3,k5,m7) 0
y(j3,k5,m8) 0
y(j3,k5,m9) 1
y(j3,k6,m0) 1
y(j3,k6,m1) 1
y(j3,k6,m2) 1
y(j3,k6,m3) 1
y(j3,k6,m4) 0
y(j3,k6,m5) 1
y(j3,k6,m6) 0
y(j3,k6,m7) 1
y(j3,k6,m8) 1
y(j3,k6,m9) 1
y(j3,k7,m0) 0
y(j3,k7,m1) 1
y(j3,k7,m2) 1
y(j3,k7,m3) 0
y(j3,k7,m4) 1
y(j3,k7,m5) 0
y(j3,k7,m6) 0
y(j3,k7,m7) 1
y(j3,k7,m8) 0
y(j3,k7,m9) 0
y(j3,k8,m0) 1
y(j3,k8,m1) 1
y(j3,k8,m2) 1
y(j3,k8,m3) 0
y(j3,k8,m4) 0
y(j3,k8,m5) 0
y(j3,k8,m6) 0
y(j3,k8,m7) 1
y(j3,k8,m8) 1
y(j3,k8,m9) 0
y(j3,k9,m0) 0
y(j3,k9,m1) 1
y(j3,k9,m2) 1
y(j3,k9,m3) 1
y(j3,k9,m4) 0
y(j3,k9,m5) 1
y(j3,k9,m6) 0
y(j3,k9,m7) 1
y(j3,k9,m8) 1
y(j3,k9,m9) 0
y(j4,k0,m0) 0
y(j4,k0,m1) 1
y(j4,k0,m2) 0
y(j4,k0,m3) 0
y(j4,k0,m4) 0
y(j4,k0,m5) 0
y(j4,k0,m6) 1
y(j4,k0,m7) 0
y(j4,k0,m8) 0
y(j4,k0,m9) 0
y(j4,k1,m0) 0
y(j4,k1,m1) 0
y(j4,k1,m2) 1
y(j4,k1,m3) 1
y(j4,k1,m4) 0
y(j4,k1,m5) 0
y(j4,k1,m6) 1
y(j4,k1,m7) 0
y(j4,k1,m8) 0
y(j4,k1,m9) 1
y(j4,k2,m0) 1
y(j4,k2,m1) 1
y(j4,k2,m2) 1
y(j4,k2,m3) 1
y(j4,k2,m4) 0
y(j4,k2,m5) 1
y(j4,k2,m6) 1
y(j4,k2,m7) 1
y(j4,k2,m8) 0
y(j4,k2,m9) 0
y(j4,k3,m0) 1
y(j4,k3,m1) 0
y(j4,k3,m2) 0
y(j4,k3,m3) 1
y(j4,k3,m4) 0
y(j4,k3,m5) 0
y(j4,k3,m6) 1
y(j4,k3,m7) 0
y(j4,k3,m8) 0
y(j4,k3,m9) 0
y(j4,k5,m0) 1
y(j4,k5,m1) 1
y(j4,k5,m2) 0
y(j4,k5,m3) 1
y(j4,k5,m4) 0
y(j4,k5,m5) 0
y(j4,k5,m6) 1
y(j4,k5,m7) 0
y(j4,k5,m8) 0
y(j4,k5,m9) 1
y(j4,k6,m0) 1
y(j4,k6,m1) 1
y(j4,k6,m2) 0
y(j4,k6,m3) 1
y(j4,k6,m4) 0
y(j4,k6,m5) 0
y(j4,k6,m6) 0
y(j4,k6,m7) 0
y(j4,k6,m8) 1
y(j4,k6,m9) 0
y(j4,k7,m0) 0
y(j4,k7,m1) 1
y(j4,k7,m2) 1
y(j4,k7,m3) 0
y(j4,k7,m4) 0
y(j4,k7,m5) 0
y(j4,k7,m6) 1
y(j4,k7,m7) 0
y(j4,k7,m8) 0
y(j4,k7,m9) 0
y(j4,k8,m0) 1
y(j4,k8,m1) 1
y(j4,k8,m2) 0
y(j4,k8,m3) 0
y(j4,k8,m4) 0
y(j4,k8,m5) 0
y(j4,k8,m6) 1
y(j4,k8,m7) 0
y(j4,k8,m8) 0
y(j4,k8,m9) 0
y(j4,k9,m0) 0
y(j4,k9,m1) 1
y(j4,k9,m2) 0
y(j4,k9,m3) 1
y(j4,k9,m4) 0
y(j4,k9,m5) 0
y(j4,k9,m6) 1
y(j4,k9,m7) 0
y(j4,k9,m8) 0
y(j4,k9,m9) 0
y(j5,k0,m0) 0
y(j5,k0,m1) 0
y(j5,k0,m2) 0
y(j5,k0,m3) 0
y(j5,k0,m4) 0
y(j5,k0,m5) 0
y(j5,k0,m6) 1
y(j5,k0,m7) 1
y(j5,k0,m8) 1
y(j5,k0,m9) 0
y(j5,k1,m0) 0
y(j5,k1,m1) 0
y(j5,k1,m2) 1
y(j5,k1,m3) 0
y(j5,k1,m4) 0
y(j5,k1,m5) 1
y(j5,k1,m6) 1
y(j5,k1,m7) 0
y(j5,k1,m8) 0
y(j5,k1,m9) 0
y(j5,k2,m0) 0
y(j5,k2,m1) 0
y(j5,k2,m2) 1
y(j5,k2,m3) 0
y(j5,k2,m4) 0
y(j5,k2,m5) 1
y(j5,k2,m6) 0
y(j5,k2,m7) 1
y(j5,k2,m8) 1
y(j5,k2,m9) 0
y(j5,k3,m0) 0
y(j5,k3,m1) 0
y(j5,k3,m2) 0
y(j5,k3,m3) 0
y(j5,k3,m4) 0
y(j5,k3,m5) 1
y(j5,k3,m6) 0
y(j5,k3,m7) 1
y(j5,k3,m8) 1
y(j5,k3,m9) 0
y(j5,k4,m0) 0
y(j5,k4,m1) 0
y(j5,k4,m2) 1
y(j5,k4,m3) 0
y(j5,k4,m4) 1
y(j5,k4,m5) 1
y(j5,k4,m6) 0
y(j5,k4,m7) 1
y(j5,k4,m8) 1
y(j5,k4,m9) 0
y(j5,k6,m0) 0
y(j5,k6,m1) 0
y(j5,k6,m2) 1
y(j5,k6,m3) 0
y(j5,k6,m4) 0
y(j5,k6,m5) 1
y(j5,k6,m6) 0
y(j5,k6,m7) 1
y(j5,k6,m8) 1
y(j5,k6,m9) 0
y(j5,k7,m0) 0
y(j5,k7,m1) 1
y(j5,k7,m2) 1
y(j5,k7,m3) 0
y(j5,k7,m4) 1
y(j5,k7,m5) 0
y(j5,k7,m6) 0
y(j5,k7,m7) 1
y(j5,k7,m8) 0
y(j5,k7,m9) 0
y(j5,k8,m0) 0
y(j5,k8,m1) 0
y(j5,k8,m2) 0
y(j5,k8,m3) 0
y(j5,k8,m4) 0
y(j5,k8,m5) 0
y(j5,k8,m6) 0
y(j5,k8,m7) 1
y(j5,k8,m8) 1
y(j5,k8,m9) 0
y(j5,k9,m0) 0
y(j5,k9,m1) 1
y(j5,k9,m2) 1
y(j5,k9,m3) 1
y(j5,k9,m4) 0
y(j5,k9,m5) 1
y(j5,k9,m6) 0
y(j5,k9,m7) 1
y(j5,k9,m8) 1
y(j5,k9,m9) 0
y(j6,k0,m0) 0
y(j6,k0,m1) 1
y(j6,k0,m2) 0
y(j6,k0,m3) 0
y(j6,k0,m4) 0
y(j6,k0,m5) 0
y(j6,k0,m6) 1
y(j6,k0,m7) 0
y(j6,k0,m8) 0
y(j6,k0,m9) 0
y(j6,k1,m0) 0
y(j6,k1,m1) 0
y(j6,k1,m2) 1
y(j6,k1,m3) 1
y(j6,k1,m4) 0
y(j6,k1,m5) 1
y(j6,k1,m6) 1
y(j6,k1,m7) 0
y(j6,k1,m8) 0
y(j6,k1,m9) 1
y(j6,k2,m0) 0
y(j6,k2,m1) 1
y(j6,k2,m2) 1
y(j6,k2,m3) 0
y(j6,k2,m4) 0
y(j6,k2,m5) 1
y(j6,k2,m6) 1
y(j6,k2,m7) 1
y(j6,k2,m8) 0
y(j6,k2,m9) 0
y(j6,k3,m0) 0
y(j6,k3,m1) 0
y(j6,k3,m2) 0
y(j6,k3,m3) 0
y(j6,k3,m4) 1
y(j6,k3,m5) 0
y(j6,k3,m6) 1
y(j6,k3,m7) 0
y(j6,k3,m8) 0
y(j6,k3,m9) 0
y(j6,k4,m0) 0
y(j6,k4,m1) 0
y(j6,k4,m2) 1
y(j6,k4,m3) 0
y(j6,k4,m4) 1
y(j6,k4,m5) 1
y(j6,k4,m6) 1
y(j6,k4,m7) 1
y(j6,k4,m8) 0
y(j6,k4,m9) 1
y(j6,k5,m0) 1
y(j6,k5,m1) 1
y(j6,k5,m2) 0
y(j6,k5,m3) 1
y(j6,k5,m4) 1
y(j6,k5,m5) 0
y(j6,k5,m6) 1
y(j6,k5,m7) 0
y(j6,k5,m8) 0
y(j6,k5,m9) 1
y(j6,k7,m0) 0
y(j6,k7,m1) 1
y(j6,k7,m2) 1
y(j6,k7,m3) 0
y(j6,k7,m4) 1
y(j6,k7,m5) 0
y(j6,k7,m6) 1
y(j6,k7,m7) 1
y(j6,k7,m8) 0
y(j6,k7,m9) 0
y(j6,k8,m0) 0
y(j6,k8,m1) 1
y(j6,k8,m2) 0
y(j6,k8,m3) 0
y(j6,k8,m4) 1
y(j6,k8,m5) 0
y(j6,k8,m6) 1
y(j6,k8,m7) 0
y(j6,k8,m8) 0
y(j6,k8,m9) 0
y(j6,k9,m0) 0
y(j6,k9,m1) 1
y(j6,k9,m2) 0
y(j6,k9,m3) 1
y(j6,k9,m4) 0
y(j6,k9,m5) 1
y(j6,k9,m6) 1
y(j6,k9,m7) 0
y(j6,k9,m8) 0
y(j6,k9,m9) 0
y(j7,k0,m0) 1
y(j7,k0,m1) 0
y(j7,k0,m2) 0
y(j7,k0,m3) 0
y(j7,k0,m4) 0
y(j7,k0,m5) 1
y(j7,k0,m6) 1
y(j7,k0,m7) 0
y(j7,k0,m8) 1
y(j7,k0,m9) 1
y(j7,k1,m0) 1
y(j7,k1,m1) 0
y(j7,k1,m2) 0
y(j7,k1,m3) 1
y(j7,k1,m4) 0
y(j7,k1,m5) 1
y(j7,k1,m6) 1
y(j7,k1,m7) 0
y(j7,k1,m8) 1
y(j7,k1,m9) 1
y(j7,k2,m0) 1
y(j7,k2,m1) 0
y(j7,k2,m2) 0
y(j7,k2,m3) 1
y(j7,k2,m4) 0
y(j7,k2,m5) 1
y(j7,k2,m6) 0
y(j7,k2,m7) 1
y(j7,k2,m8) 1
y(j7,k2,m9) 1
y(j7,k3,m0) 1
y(j7,k3,m1) 0
y(j7,k3,m2) 0
y(j7,k3,m3) 1
y(j7,k3,m4) 0
y(j7,k3,m5) 1
y(j7,k3,m6) 1
y(j7,k3,m7) 0
y(j7,k3,m8) 1
y(j7,k3,m9) 1
y(j7,k4,m0) 1
y(j7,k4,m1) 0
y(j7,k4,m2) 0
y(j7,k4,m3) 1
y(j7,k4,m4) 1
y(j7,k4,m5) 1
y(j7,k4,m6) 0
y(j7,k4,m7) 1
y(j7,k4,m8) 1
y(j7,k4,m9) 1
y(j7,k5,m0) 1
y(j7,k5,m1) 0
y(j7,k5,m2) 0
y(j7,k5,m3) 1
y(j7,k5,m4) 0
y(j7,k5,m5) 1
y(j7,k5,m6) 1
y(j7,k5,m7) 0
y(j7,k5,m8) 1
y(j7,k5,m9) 1
y(j7,k6,m0) 1
y(j7,k6,m1) 0
y(j7,k6,m2) 0
y(j7,k6,m3) 1
y(j7,k6,m4) 0
y(j7,k6,m5) 1
y(j7,k6,m6) 0
y(j7,k6,m7) 0
y(j7,k6,m8) 1
y(j7,k6,m9) 1
y(j7,k8,m0) 1
y(j7,k8,m1) 0
y(j7,k8,m2) 0
y(j7,k8,m3) 0
y(j7,k8,m4) 0
y(j7,k8,m5) 0
y(j7,k8,m6) 0
y(j7,k8,m7) 0
y(j7,k8,m8) 1
y(j7,k8,m9) 1
y(j7,k9,m0) 1
y(j7,k9,m1) 0
y(j7,k9,m2) 0
y(j7,k9,m3) 1
y(j7,k9,m4) 0
y(j7,k9,m5) 1
y(j7,k9,m6) 0
y(j7,k9,m7) 0
y(j7,k9,m8) 1
y(j7,k9,m9) 0
y(j8,k0,m0) 0
y(j8,k0,m1) 1
y(j8,k0,m2) 0
y(j8,k0,m3) 0
y(j8,k0,m4) 0
y(j8,k0,m5) 1
y(j8,k0,m6) 1
y(j8,k0,m7) 0
y(j8,k0,m8) 1
y(j8,k0,m9) 1
y(j8,k1,m0) 0
y(j8,k1,m1) 0
y(j8,k1,m2) 1
y(j8,k1,m3) 1
y(j8,k1,m4) 0
y(j8,k1,m5) 1
y(j8,k1,m6) 1
y(j8,k1,m7) 0
y(j8,k1,m8) 0
y(j8,k1,m9) 1
y(j8,k2,m0) 0
y(j8,k2,m1) 0
y(j8,k2,m2) 1
y(j8,k2,m3) 1
y(j8,k2,m4) 0
y(j8,k2,m5) 1
y(j8,k2,m6) 1
y(j8,k2,m7) 1
y(j8,k2,m8) 1
y(j8,k2,m9) 0
y(j8,k3,m0) 0
y(j8,k3,m1) 0
y(j8,k3,m2) 0
y(j8,k3,m3) 1
y(j8,k3,m4) 1
y(j8,k3,m5) 1
y(j8,k3,m6) 1
y(j8,k3,m7) 0
y(j8,k3,m8) 0
y(j8,k3,m9) 1
y(j8,k4,m0) 0
y(j8,k4,m1) 0
y(j8,k4,m2) 1
y(j8,k4,m3) 1
y(j8,k4,m4) 1
y(j8,k4,m5) 1
y(j8,k4,m6) 0
y(j8,k4,m7) 1
y(j8,k4,m8) 1
y(j8,k4,m9) 1
y(j8,k5,m0) 1
y(j8,k5,m1) 1
y(j8,k5,m2) 1
y(j8,k5,m3) 1
y(j8,k5,m4) 1
y(j8,k5,m5) 1
y(j8,k5,m6) 1
y(j8,k5,m7) 0
y(j8,k5,m8) 0
y(j8,k5,m9) 1
y(j8,k6,m0) 1
y(j8,k6,m1) 0
y(j8,k6,m2) 1
y(j8,k6,m3) 1
y(j8,k6,m4) 0
y(j8,k6,m5) 1
y(j8,k6,m6) 0
y(j8,k6,m7) 1
y(j8,k6,m8) 1
y(j8,k6,m9) 1
y(j8,k7,m0) 0
y(j8,k7,m1) 1
y(j8,k7,m2) 1
y(j8,k7,m3) 1
y(j8,k7,m4) 1
y(j8,k7,m5) 1
y(j8,k7,m6) 1
y(j8,k7,m7) 1
y(j8,k7,m8) 0
y(j8,k7,m9) 0
y(j8,k9,m0) 0
y(j8,k9,m1) 1
y(j8,k9,m2) 1
y(j8,k9,m3) 1
y(j8,k9,m4) 0
y(j8,k9,m5) 1
y(j8,k9,m6) 0
y(j8,k9,m7) 0
y(j8,k9,m8) 0
y(j8,k9,m9) 0
y(j9,k0,m0) 0
y(j9,k0,m1) 0
y(j9,k0,m2) 0
y(j9,k0,m3) 0
y(j9,k0,m4) 1
y(j9,k0,m5) 0
y(j9,k0,m6) 1
y(j9,k0,m7) 1
y(j9,k0,m8) 1
y(j9,k0,m9) 1
y(j9,k1,m0) 1
y(j9,k1,m1) 0
y(j9,k1,m2) 1
y(j9,k1,m3) 0
y(j9,k1,m4) 0
y(j9,k1,m5) 1
y(j9,k1,m6) 1
y(j9,k1,m7) 0
y(j9,k1,m8) 0
y(j9,k1,m9) 1
y(j9,k2,m0) 1
y(j9,k2,m1) 0
y(j9,k2,m2) 1
y(j9,k2,m3) 0
y(j9,k2,m4) 1
y(j9,k2,m5) 1
y(j9,k2,m6) 1
y(j9,k2,m7) 1
y(j9,k2,m8) 1
y(j9,k2,m9) 1
y(j9,k3,m0) 1
y(j9,k3,m1) 0
y(j9,k3,m2) 0
y(j9,k3,m3) 0
y(j9,k3,m4) 1
y(j9,k3,m5) 0
y(j9,k3,m6) 1
y(j9,k3,m7) 0
y(j9,k3,m8) 0
y(j9,k3,m9) 1
y(j9,k4,m0) 1
y(j9,k4,m1) 0
y(j9,k4,m2) 1
y(j9,k4,m3) 0
y(j9,k4,m4) 1
y(j9,k4,m5) 1
y(j9,k4,m6) 0
y(j9,k4,m7) 1
y(j9,k4,m8) 1
y(j9,k4,m9) 1
y(j9,k5,m0) 1
y(j9,k5,m1) 0
y(j9,k5,m2) 0
y(j9,k5,m3) 0
y(j9,k5,m4) 1
y(j9,k5,m5) 0
y(j9,k5,m6) 1
y(j9,k5,m7) 0
y(j9,k5,m8) 0
y(j9,k5,m9) 1
y(j9,k6,m0) 1
y(j9,k6,m1) 0
y(j9,k6,m2) 1
y(j9,k6,m3) 0
y(j9,k6,m4) 1
y(j9,k6,m5) 0
y(j9,k6,m6) 0
y(j9,k6,m7) 1
y(j9,k6,m8) 1
y(j9,k6,m9) 1
y(j9,k7,m0) 0
y(j9,k7,m1) 1
y(j9,k7,m2) 1
y(j9,k7,m3) 0
y(j9,k7,m4) 1
y(j9,k7,m5) 0
y(j9,k7,m6) 1
y(j9,k7,m7) 1
y(j9,k7,m8) 0
y(j9,k7,m9) 1
y(j9,k8,m0) 1
y(j9,k8,m1) 0
y(j9,k8,m2) 0
y(j9,k8,m3) 0
y(j9,k8,m4) 1
y(j9,k8,m5) 0
y(j9,k8,m6) 1
y(j9,k8,m7) 1
y(j9,k8,m8) 1
y(j9,k8,m9) 1
